src/CLOCK_DIVIDERS/DYNAMIC_CLOCK_DIVIDER/DCD/model/design_smt2.smt2
; SMT-LIBv2 description generated by Yosys 0.9+932 (git sha1 65f197e2, clang 6.0.0-1ubuntu2 -fPIC -Os)
; yosys-smt2-module dynamic_clock_divider
(declare-sort |dynamic_clock_divider_s| 0)
(declare-fun |dynamic_clock_divider_is| (|dynamic_clock_divider_s|) Bool)
; yosys-smt2-register r_Count 32
; yosys-smt2-wire r_Count 32
(declare-fun |dynamic_clock_divider#0| (|dynamic_clock_divider_s|) (_ BitVec 32)) ; \r_Count
(define-fun |dynamic_clock_divider_n r_Count| ((state |dynamic_clock_divider_s|)) (_ BitVec 32) (|dynamic_clock_divider#0| state))
; yosys-smt2-output o_ENABLE_OUT 1
; yosys-smt2-register o_ENABLE_OUT 1
; yosys-smt2-wire o_ENABLE_OUT 1
(declare-fun |dynamic_clock_divider#1| (|dynamic_clock_divider_s|) (_ BitVec 1)) ; \o_ENABLE_OUT
(define-fun |dynamic_clock_divider_n o_ENABLE_OUT| ((state |dynamic_clock_divider_s|)) Bool (= ((_ extract 0 0) (|dynamic_clock_divider#1| state)) #b1))
; yosys-smt2-input i_RST 1
; yosys-smt2-wire i_RST 1
(declare-fun |dynamic_clock_divider#2| (|dynamic_clock_divider_s|) Bool) ; \i_RST
(define-fun |dynamic_clock_divider_n i_RST| ((state |dynamic_clock_divider_s|)) Bool (|dynamic_clock_divider#2| state))
; yosys-smt2-input i_ENABLE 1
; yosys-smt2-wire i_ENABLE 1
(declare-fun |dynamic_clock_divider#3| (|dynamic_clock_divider_s|) Bool) ; \i_ENABLE
(define-fun |dynamic_clock_divider_n i_ENABLE| ((state |dynamic_clock_divider_s|)) Bool (|dynamic_clock_divider#3| state))
; yosys-smt2-input i_DIV_VALUE 32
; yosys-smt2-wire i_DIV_VALUE 32
(declare-fun |dynamic_clock_divider#4| (|dynamic_clock_divider_s|) (_ BitVec 32)) ; \i_DIV_VALUE
(define-fun |dynamic_clock_divider_n i_DIV_VALUE| ((state |dynamic_clock_divider_s|)) (_ BitVec 32) (|dynamic_clock_divider#4| state))
; yosys-smt2-input i_CLK 1
; yosys-smt2-wire i_CLK 1
(declare-fun |dynamic_clock_divider#5| (|dynamic_clock_divider_s|) Bool) ; \i_CLK
(define-fun |dynamic_clock_divider_n i_CLK| ((state |dynamic_clock_divider_s|)) Bool (|dynamic_clock_divider#5| state))
; yosys-smt2-register $past$dynamic_clock_divider.v:86$2$0 32
(declare-fun |dynamic_clock_divider#6| (|dynamic_clock_divider_s|) (_ BitVec 32)) ; $past$dynamic_clock_divider.v:86$2$0
(define-fun |dynamic_clock_divider_n $past$dynamic_clock_divider.v:86$2$0| ((state |dynamic_clock_divider_s|)) (_ BitVec 32) (|dynamic_clock_divider#6| state))
; yosys-smt2-register $past$dynamic_clock_divider.v:100$9$0 32
(declare-fun |dynamic_clock_divider#7| (|dynamic_clock_divider_s|) (_ BitVec 32)) ; $past$dynamic_clock_divider.v:100$9$0
(define-fun |dynamic_clock_divider_n $past$dynamic_clock_divider.v:100$9$0| ((state |dynamic_clock_divider_s|)) (_ BitVec 32) (|dynamic_clock_divider#7| state))
; yosys-smt2-register $formal$dynamic_clock_divider.v:92$19_CHECK 1
(declare-fun |dynamic_clock_divider#8| (|dynamic_clock_divider_s|) (_ BitVec 1)) ; $formal$dynamic_clock_divider.v:92$19_CHECK
(define-fun |dynamic_clock_divider_n $formal$dynamic_clock_divider.v:92$19_CHECK| ((state |dynamic_clock_divider_s|)) Bool (= ((_ extract 0 0) (|dynamic_clock_divider#8| state)) #b1))
; yosys-smt2-register $formal$dynamic_clock_divider.v:91$18_EN 1
(declare-fun |dynamic_clock_divider#9| (|dynamic_clock_divider_s|) (_ BitVec 1)) ; $formal$dynamic_clock_divider.v:91$18_EN
(define-fun |dynamic_clock_divider_n $formal$dynamic_clock_divider.v:91$18_EN| ((state |dynamic_clock_divider_s|)) Bool (= ((_ extract 0 0) (|dynamic_clock_divider#9| state)) #b1))
; yosys-smt2-register $formal$dynamic_clock_divider.v:91$18_CHECK 1
(declare-fun |dynamic_clock_divider#10| (|dynamic_clock_divider_s|) (_ BitVec 1)) ; $formal$dynamic_clock_divider.v:91$18_CHECK
(define-fun |dynamic_clock_divider_n $formal$dynamic_clock_divider.v:91$18_CHECK| ((state |dynamic_clock_divider_s|)) Bool (= ((_ extract 0 0) (|dynamic_clock_divider#10| state)) #b1))
; yosys-smt2-register $formal$dynamic_clock_divider.v:105$22_CHECK 1
(declare-fun |dynamic_clock_divider#11| (|dynamic_clock_divider_s|) (_ BitVec 1)) ; $formal$dynamic_clock_divider.v:105$22_CHECK
(define-fun |dynamic_clock_divider_n $formal$dynamic_clock_divider.v:105$22_CHECK| ((state |dynamic_clock_divider_s|)) Bool (= ((_ extract 0 0) (|dynamic_clock_divider#11| state)) #b1))
; yosys-smt2-register $formal$dynamic_clock_divider.v:104$21_EN 1
(declare-fun |dynamic_clock_divider#12| (|dynamic_clock_divider_s|) (_ BitVec 1)) ; $formal$dynamic_clock_divider.v:104$21_EN
(define-fun |dynamic_clock_divider_n $formal$dynamic_clock_divider.v:104$21_EN| ((state |dynamic_clock_divider_s|)) Bool (= ((_ extract 0 0) (|dynamic_clock_divider#12| state)) #b1))
; yosys-smt2-register $formal$dynamic_clock_divider.v:104$21_CHECK 1
(declare-fun |dynamic_clock_divider#13| (|dynamic_clock_divider_s|) (_ BitVec 1)) ; $formal$dynamic_clock_divider.v:104$21_CHECK
(define-fun |dynamic_clock_divider_n $formal$dynamic_clock_divider.v:104$21_CHECK| ((state |dynamic_clock_divider_s|)) Bool (= ((_ extract 0 0) (|dynamic_clock_divider#13| state)) #b1))
; yosys-smt2-register $formal$dynamic_clock_divider.v:101$20_EN 1
(declare-fun |dynamic_clock_divider#14| (|dynamic_clock_divider_s|) (_ BitVec 1)) ; $formal$dynamic_clock_divider.v:101$20_EN
(define-fun |dynamic_clock_divider_n $formal$dynamic_clock_divider.v:101$20_EN| ((state |dynamic_clock_divider_s|)) Bool (= ((_ extract 0 0) (|dynamic_clock_divider#14| state)) #b1))
; yosys-smt2-register $formal$dynamic_clock_divider.v:101$20_CHECK 1
(declare-fun |dynamic_clock_divider#15| (|dynamic_clock_divider_s|) (_ BitVec 1)) ; $formal$dynamic_clock_divider.v:101$20_CHECK
(define-fun |dynamic_clock_divider_n $formal$dynamic_clock_divider.v:101$20_CHECK| ((state |dynamic_clock_divider_s|)) Bool (= ((_ extract 0 0) (|dynamic_clock_divider#15| state)) #b1))
; yosys-smt2-register $eq$dynamic_clock_divider.v:98$72_Y 1
(declare-fun |dynamic_clock_divider#16| (|dynamic_clock_divider_s|) (_ BitVec 1)) ; $eq$dynamic_clock_divider.v:98$72_Y
(define-fun |dynamic_clock_divider_n $eq$dynamic_clock_divider.v:98$72_Y| ((state |dynamic_clock_divider_s|)) Bool (= ((_ extract 0 0) (|dynamic_clock_divider#16| state)) #b1))
; yosys-smt2-register $eq$dynamic_clock_divider.v:89$65_Y 1
(declare-fun |dynamic_clock_divider#17| (|dynamic_clock_divider_s|) (_ BitVec 1)) ; $eq$dynamic_clock_divider.v:89$65_Y
(define-fun |dynamic_clock_divider_n $eq$dynamic_clock_divider.v:89$65_Y| ((state |dynamic_clock_divider_s|)) Bool (= ((_ extract 0 0) (|dynamic_clock_divider#17| state)) #b1))
; yosys-smt2-register $and$dynamic_clock_divider.v:87$60_Y 1
(declare-fun |dynamic_clock_divider#18| (|dynamic_clock_divider_s|) (_ BitVec 1)) ; $and$dynamic_clock_divider.v:87$60_Y
(define-fun |dynamic_clock_divider_n $and$dynamic_clock_divider.v:87$60_Y| ((state |dynamic_clock_divider_s|)) Bool (= ((_ extract 0 0) (|dynamic_clock_divider#18| state)) #b1))
(define-fun |dynamic_clock_divider#19| ((state |dynamic_clock_divider_s|)) Bool (= (|dynamic_clock_divider#6| state) (|dynamic_clock_divider#4| state))) ; $0$formal$dynamic_clock_divider.v:86$17_CHECK[0:0]$45
; yosys-smt2-assume 0 dynamic_clock_divider.v:86
(define-fun |dynamic_clock_divider_u 0| ((state |dynamic_clock_divider_s|)) Bool (or (|dynamic_clock_divider#19| state) (not true))) ; $assume$dynamic_clock_divider.v:86$82
(define-fun |dynamic_clock_divider#20| ((state |dynamic_clock_divider_s|)) Bool (distinct (ite (|dynamic_clock_divider#5| state) #b1 #b0) (|dynamic_clock_divider#18| state))) ; $0$formal$dynamic_clock_divider.v:85$16_CHECK[0:0]$43
; yosys-smt2-assume 1 dynamic_clock_divider.v:85
(define-fun |dynamic_clock_divider_u 1| ((state |dynamic_clock_divider_s|)) Bool (or (|dynamic_clock_divider#20| state) (not true))) ; $assume$dynamic_clock_divider.v:85$81
(define-fun |dynamic_clock_divider#21| ((state |dynamic_clock_divider_s|)) Bool (|dynamic_clock_divider_is| state)) ; $0$formal$dynamic_clock_divider.v:77$10_EN[0:0]$90
; yosys-smt2-assume 2 dynamic_clock_divider.v:79
(define-fun |dynamic_clock_divider_u 2| ((state |dynamic_clock_divider_s|)) Bool (or (|dynamic_clock_divider#2| state) (not (|dynamic_clock_divider#21| state)))) ; $assume$dynamic_clock_divider.v:79$80
(define-fun |dynamic_clock_divider#22| ((state |dynamic_clock_divider_s|)) (_ BitVec 1) (bvnot (ite (|dynamic_clock_divider#5| state) #b1 #b0))) ; $0$formal$dynamic_clock_divider.v:78$12_CHECK[0:0]$91
; yosys-smt2-assume 3 dynamic_clock_divider.v:78
(define-fun |dynamic_clock_divider_u 3| ((state |dynamic_clock_divider_s|)) Bool (or (= ((_ extract 0 0) (|dynamic_clock_divider#22| state)) #b1) (not (|dynamic_clock_divider#21| state)))) ; $assume$dynamic_clock_divider.v:78$79
(define-fun |dynamic_clock_divider#23| ((state |dynamic_clock_divider_s|)) Bool (not (or  (= ((_ extract 0 0) (|dynamic_clock_divider#0| state)) #b1) (= ((_ extract 1 1) (|dynamic_clock_divider#0| state)) #b1) (= ((_ extract 2 2) (|dynamic_clock_divider#0| state)) #b1) (= ((_ extract 3 3) (|dynamic_clock_divider#0| state)) #b1) (= ((_ extract 4 4) (|dynamic_clock_divider#0| state)) #b1) (= ((_ extract 5 5) (|dynamic_clock_divider#0| state)) #b1) (= ((_ extract 6 6) (|dynamic_clock_divider#0| state)) #b1) (= ((_ extract 7 7) (|dynamic_clock_divider#0| state)) #b1) (= ((_ extract 8 8) (|dynamic_clock_divider#0| state)) #b1) (= ((_ extract 9 9) (|dynamic_clock_divider#0| state)) #b1) (= ((_ extract 10 10) (|dynamic_clock_divider#0| state)) #b1) (= ((_ extract 11 11) (|dynamic_clock_divider#0| state)) #b1) (= ((_ extract 12 12) (|dynamic_clock_divider#0| state)) #b1) (= ((_ extract 13 13) (|dynamic_clock_divider#0| state)) #b1) (= ((_ extract 14 14) (|dynamic_clock_divider#0| state)) #b1) (= ((_ extract 15 15) (|dynamic_clock_divider#0| state)) #b1) (= ((_ extract 16 16) (|dynamic_clock_divider#0| state)) #b1) (= ((_ extract 17 17) (|dynamic_clock_divider#0| state)) #b1) (= ((_ extract 18 18) (|dynamic_clock_divider#0| state)) #b1) (= ((_ extract 19 19) (|dynamic_clock_divider#0| state)) #b1) (= ((_ extract 20 20) (|dynamic_clock_divider#0| state)) #b1) (= ((_ extract 21 21) (|dynamic_clock_divider#0| state)) #b1) (= ((_ extract 22 22) (|dynamic_clock_divider#0| state)) #b1) (= ((_ extract 23 23) (|dynamic_clock_divider#0| state)) #b1) (= ((_ extract 24 24) (|dynamic_clock_divider#0| state)) #b1) (= ((_ extract 25 25) (|dynamic_clock_divider#0| state)) #b1) (= ((_ extract 26 26) (|dynamic_clock_divider#0| state)) #b1) (= ((_ extract 27 27) (|dynamic_clock_divider#0| state)) #b1) (= ((_ extract 28 28) (|dynamic_clock_divider#0| state)) #b1) (= ((_ extract 29 29) (|dynamic_clock_divider#0| state)) #b1) (= ((_ extract 30 30) (|dynamic_clock_divider#0| state)) #b1) (= ((_ extract 31 31) (|dynamic_clock_divider#0| state)) #b1)))) ; $0$formal$dynamic_clock_divider.v:77$10_CHECK[0:0]$89
; yosys-smt2-assume 4 dynamic_clock_divider.v:77
(define-fun |dynamic_clock_divider_u 4| ((state |dynamic_clock_divider_s|)) Bool (or (|dynamic_clock_divider#23| state) (not (|dynamic_clock_divider#21| state)))) ; $assume$dynamic_clock_divider.v:77$78
; yosys-smt2-assert 0 dynamic_clock_divider.v:92
(define-fun |dynamic_clock_divider_a 0| ((state |dynamic_clock_divider_s|)) Bool (or (= ((_ extract 0 0) (|dynamic_clock_divider#8| state)) #b1) (not (= ((_ extract 0 0) (|dynamic_clock_divider#9| state)) #b1)))) ; $assert$dynamic_clock_divider.v:92$84
; yosys-smt2-assert 1 dynamic_clock_divider.v:91
(define-fun |dynamic_clock_divider_a 1| ((state |dynamic_clock_divider_s|)) Bool (or (= ((_ extract 0 0) (|dynamic_clock_divider#10| state)) #b1) (not (= ((_ extract 0 0) (|dynamic_clock_divider#9| state)) #b1)))) ; $assert$dynamic_clock_divider.v:91$83
; yosys-smt2-assert 2 dynamic_clock_divider.v:105
(define-fun |dynamic_clock_divider_a 2| ((state |dynamic_clock_divider_s|)) Bool (or (= ((_ extract 0 0) (|dynamic_clock_divider#11| state)) #b1) (not (= ((_ extract 0 0) (|dynamic_clock_divider#12| state)) #b1)))) ; $assert$dynamic_clock_divider.v:105$87
; yosys-smt2-assert 3 dynamic_clock_divider.v:104
(define-fun |dynamic_clock_divider_a 3| ((state |dynamic_clock_divider_s|)) Bool (or (= ((_ extract 0 0) (|dynamic_clock_divider#13| state)) #b1) (not (= ((_ extract 0 0) (|dynamic_clock_divider#12| state)) #b1)))) ; $assert$dynamic_clock_divider.v:104$86
; yosys-smt2-assert 4 dynamic_clock_divider.v:101
(define-fun |dynamic_clock_divider_a 4| ((state |dynamic_clock_divider_s|)) Bool (or (= ((_ extract 0 0) (|dynamic_clock_divider#15| state)) #b1) (not (= ((_ extract 0 0) (|dynamic_clock_divider#14| state)) #b1)))) ; $assert$dynamic_clock_divider.v:101$85
; yosys-smt2-anyseq dynamic_clock_divider#24 1 $auto$setundef.cc:524:execute$263
(declare-fun |dynamic_clock_divider#24| (|dynamic_clock_divider_s|) (_ BitVec 1)) ; $auto$rtlil.cc:2318:Anyseq$264
; yosys-smt2-anyseq dynamic_clock_divider#25 1 $auto$setundef.cc:524:execute$259
(declare-fun |dynamic_clock_divider#25| (|dynamic_clock_divider_s|) (_ BitVec 1)) ; $auto$rtlil.cc:2318:Anyseq$260
; yosys-smt2-anyseq dynamic_clock_divider#26 1 $auto$setundef.cc:524:execute$257
(declare-fun |dynamic_clock_divider#26| (|dynamic_clock_divider_s|) (_ BitVec 1)) ; $auto$rtlil.cc:2318:Anyseq$258
; yosys-smt2-anyseq dynamic_clock_divider#27 1 $auto$setundef.cc:524:execute$255
(declare-fun |dynamic_clock_divider#27| (|dynamic_clock_divider_s|) (_ BitVec 1)) ; $auto$rtlil.cc:2318:Anyseq$256
(define-fun |dynamic_clock_divider#28| ((state |dynamic_clock_divider_s|)) (_ BitVec 1) (bvnot (|dynamic_clock_divider#1| state))) ; $eq$dynamic_clock_divider.v:101$75_Y
(define-fun |dynamic_clock_divider#29| ((state |dynamic_clock_divider_s|)) Bool (distinct (|dynamic_clock_divider#7| state) (|dynamic_clock_divider#4| state))) ; $ne$dynamic_clock_divider.v:100$74_Y
(define-fun |dynamic_clock_divider#30| ((state |dynamic_clock_divider_s|)) (_ BitVec 1) (ite (|dynamic_clock_divider#29| state) (|dynamic_clock_divider#28| state) (|dynamic_clock_divider#27| state))) ; $procmux$145_Y
(define-fun |dynamic_clock_divider#31| ((state |dynamic_clock_divider_s|)) Bool (= (|dynamic_clock_divider#16| state) (ite (|dynamic_clock_divider#3| state) #b1 #b0))) ; $eq$dynamic_clock_divider.v:98$71_Y
(define-fun |dynamic_clock_divider#32| ((state |dynamic_clock_divider_s|)) Bool (and (or  (|dynamic_clock_divider#31| state) false) (or  (= ((_ extract 0 0) (|dynamic_clock_divider#16| state)) #b1) false))) ; $logic_and$dynamic_clock_divider.v:98$73_Y
(define-fun |dynamic_clock_divider#33| ((state |dynamic_clock_divider_s|)) (_ BitVec 1) (ite (|dynamic_clock_divider#32| state) (|dynamic_clock_divider#30| state) (|dynamic_clock_divider#26| state))) ; $procmux$147_Y
(define-fun |dynamic_clock_divider#34| ((state |dynamic_clock_divider_s|)) Bool (= (|dynamic_clock_divider#17| state) (ite (|dynamic_clock_divider#2| state) #b1 #b0))) ; $eq$dynamic_clock_divider.v:96$68_Y
(define-fun |dynamic_clock_divider#35| ((state |dynamic_clock_divider_s|)) (_ BitVec 1) (bvnot (|dynamic_clock_divider#17| state))) ; $eq$dynamic_clock_divider.v:96$69_Y
(define-fun |dynamic_clock_divider#36| ((state |dynamic_clock_divider_s|)) Bool (and (or  (|dynamic_clock_divider#34| state) false) (or  (= ((_ extract 0 0) (|dynamic_clock_divider#35| state)) #b1) false))) ; $logic_and$dynamic_clock_divider.v:96$70_Y
(define-fun |dynamic_clock_divider#37| ((state |dynamic_clock_divider_s|)) (_ BitVec 1) (ite (|dynamic_clock_divider#36| state) (|dynamic_clock_divider#33| state) (|dynamic_clock_divider#25| state))) ; $procmux$149_Y
; yosys-smt2-anyseq dynamic_clock_divider#38 1 $auto$setundef.cc:524:execute$261
(declare-fun |dynamic_clock_divider#38| (|dynamic_clock_divider_s|) (_ BitVec 1)) ; $auto$rtlil.cc:2318:Anyseq$262
(define-fun |dynamic_clock_divider#39| ((state |dynamic_clock_divider_s|)) (_ BitVec 1) (ite (= ((_ extract 0 0) (|dynamic_clock_divider#17| state)) #b1) (|dynamic_clock_divider#38| state) (|dynamic_clock_divider#37| state))) ; $procmux$152_Y
(define-fun |dynamic_clock_divider#40| ((state |dynamic_clock_divider_s|)) Bool (not (or  (= ((_ extract 0 0) (|dynamic_clock_divider#18| state)) #b1) false false false false false false false false false false false false false false false false false false false false false false false false false false false false false false false))) ; $logic_not$dynamic_clock_divider.v:87$61_Y
(define-fun |dynamic_clock_divider#41| ((state |dynamic_clock_divider_s|)) Bool (and (or  (|dynamic_clock_divider#40| state) false) (or  (|dynamic_clock_divider#5| state) false false false false false false false false false false false false false false false false false false false false false false false false false false false false false false false))) ; $logic_and$dynamic_clock_divider.v:87$63_Y
(define-fun |dynamic_clock_divider#42| ((state |dynamic_clock_divider_s|)) (_ BitVec 1) (ite (|dynamic_clock_divider#41| state) (|dynamic_clock_divider#39| state) (|dynamic_clock_divider#24| state))) ; $0$formal$dynamic_clock_divider.v:101$20_CHECK[0:0]$51
(define-fun |dynamic_clock_divider#43| ((state |dynamic_clock_divider_s|)) (_ BitVec 1) (ite (|dynamic_clock_divider#29| state) #b1 #b0)) ; $procmux$133_Y
(define-fun |dynamic_clock_divider#44| ((state |dynamic_clock_divider_s|)) (_ BitVec 1) (ite (|dynamic_clock_divider#32| state) (|dynamic_clock_divider#43| state) #b0)) ; $procmux$135_Y
(define-fun |dynamic_clock_divider#45| ((state |dynamic_clock_divider_s|)) (_ BitVec 1) (ite (|dynamic_clock_divider#36| state) (|dynamic_clock_divider#44| state) #b0)) ; $procmux$137_Y
(define-fun |dynamic_clock_divider#46| ((state |dynamic_clock_divider_s|)) (_ BitVec 1) (ite (= ((_ extract 0 0) (|dynamic_clock_divider#17| state)) #b1) #b0 (|dynamic_clock_divider#45| state))) ; $procmux$140_Y
(define-fun |dynamic_clock_divider#47| ((state |dynamic_clock_divider_s|)) (_ BitVec 1) (ite (|dynamic_clock_divider#41| state) (|dynamic_clock_divider#46| state) #b0)) ; $0$formal$dynamic_clock_divider.v:101$20_EN[0:0]$52
; yosys-smt2-anyseq dynamic_clock_divider#48 1 $auto$setundef.cc:524:execute$273
(declare-fun |dynamic_clock_divider#48| (|dynamic_clock_divider_s|) (_ BitVec 1)) ; $auto$rtlil.cc:2318:Anyseq$274
; yosys-smt2-anyseq dynamic_clock_divider#49 1 $auto$setundef.cc:524:execute$269
(declare-fun |dynamic_clock_divider#49| (|dynamic_clock_divider_s|) (_ BitVec 1)) ; $auto$rtlil.cc:2318:Anyseq$270
; yosys-smt2-anyseq dynamic_clock_divider#50 1 $auto$setundef.cc:524:execute$267
(declare-fun |dynamic_clock_divider#50| (|dynamic_clock_divider_s|) (_ BitVec 1)) ; $auto$rtlil.cc:2318:Anyseq$268
; yosys-smt2-anyseq dynamic_clock_divider#51 1 $auto$setundef.cc:524:execute$265
(declare-fun |dynamic_clock_divider#51| (|dynamic_clock_divider_s|) (_ BitVec 1)) ; $auto$rtlil.cc:2318:Anyseq$266
(define-fun |dynamic_clock_divider#52| ((state |dynamic_clock_divider_s|)) (_ BitVec 1) (ite (|dynamic_clock_divider#29| state) (|dynamic_clock_divider#51| state) (|dynamic_clock_divider#1| state))) ; $procmux$169_Y
(define-fun |dynamic_clock_divider#53| ((state |dynamic_clock_divider_s|)) (_ BitVec 1) (ite (|dynamic_clock_divider#32| state) (|dynamic_clock_divider#52| state) (|dynamic_clock_divider#50| state))) ; $procmux$171_Y
(define-fun |dynamic_clock_divider#54| ((state |dynamic_clock_divider_s|)) (_ BitVec 1) (ite (|dynamic_clock_divider#36| state) (|dynamic_clock_divider#53| state) (|dynamic_clock_divider#49| state))) ; $procmux$173_Y
; yosys-smt2-anyseq dynamic_clock_divider#55 1 $auto$setundef.cc:524:execute$271
(declare-fun |dynamic_clock_divider#55| (|dynamic_clock_divider_s|) (_ BitVec 1)) ; $auto$rtlil.cc:2318:Anyseq$272
(define-fun |dynamic_clock_divider#56| ((state |dynamic_clock_divider_s|)) (_ BitVec 1) (ite (= ((_ extract 0 0) (|dynamic_clock_divider#17| state)) #b1) (|dynamic_clock_divider#55| state) (|dynamic_clock_divider#54| state))) ; $procmux$176_Y
(define-fun |dynamic_clock_divider#57| ((state |dynamic_clock_divider_s|)) (_ BitVec 1) (ite (|dynamic_clock_divider#41| state) (|dynamic_clock_divider#56| state) (|dynamic_clock_divider#48| state))) ; $0$formal$dynamic_clock_divider.v:104$21_CHECK[0:0]$53
(define-fun |dynamic_clock_divider#58| ((state |dynamic_clock_divider_s|)) (_ BitVec 1) (ite (|dynamic_clock_divider#29| state) #b0 #b1)) ; $procmux$157_Y
(define-fun |dynamic_clock_divider#59| ((state |dynamic_clock_divider_s|)) (_ BitVec 1) (ite (|dynamic_clock_divider#32| state) (|dynamic_clock_divider#58| state) #b0)) ; $procmux$159_Y
(define-fun |dynamic_clock_divider#60| ((state |dynamic_clock_divider_s|)) (_ BitVec 1) (ite (|dynamic_clock_divider#36| state) (|dynamic_clock_divider#59| state) #b0)) ; $procmux$161_Y
(define-fun |dynamic_clock_divider#61| ((state |dynamic_clock_divider_s|)) (_ BitVec 1) (ite (= ((_ extract 0 0) (|dynamic_clock_divider#17| state)) #b1) #b0 (|dynamic_clock_divider#60| state))) ; $procmux$164_Y
(define-fun |dynamic_clock_divider#62| ((state |dynamic_clock_divider_s|)) (_ BitVec 1) (ite (|dynamic_clock_divider#41| state) (|dynamic_clock_divider#61| state) #b0)) ; $0$formal$dynamic_clock_divider.v:104$21_EN[0:0]$54
; yosys-smt2-anyseq dynamic_clock_divider#63 1 $auto$setundef.cc:524:execute$283
(declare-fun |dynamic_clock_divider#63| (|dynamic_clock_divider_s|) (_ BitVec 1)) ; $auto$rtlil.cc:2318:Anyseq$284
; yosys-smt2-anyseq dynamic_clock_divider#64 1 $auto$setundef.cc:524:execute$279
(declare-fun |dynamic_clock_divider#64| (|dynamic_clock_divider_s|) (_ BitVec 1)) ; $auto$rtlil.cc:2318:Anyseq$280
; yosys-smt2-anyseq dynamic_clock_divider#65 1 $auto$setundef.cc:524:execute$277
(declare-fun |dynamic_clock_divider#65| (|dynamic_clock_divider_s|) (_ BitVec 1)) ; $auto$rtlil.cc:2318:Anyseq$278
; yosys-smt2-anyseq dynamic_clock_divider#66 1 $auto$setundef.cc:524:execute$275
(declare-fun |dynamic_clock_divider#66| (|dynamic_clock_divider_s|) (_ BitVec 1)) ; $auto$rtlil.cc:2318:Anyseq$276
(define-fun |dynamic_clock_divider#67| ((state |dynamic_clock_divider_s|)) (_ BitVec 1) (ite (|dynamic_clock_divider#29| state) (|dynamic_clock_divider#66| state) (ite (|dynamic_clock_divider#23| state) #b1 #b0))) ; $procmux$193_Y
(define-fun |dynamic_clock_divider#68| ((state |dynamic_clock_divider_s|)) (_ BitVec 1) (ite (|dynamic_clock_divider#32| state) (|dynamic_clock_divider#67| state) (|dynamic_clock_divider#65| state))) ; $procmux$195_Y
(define-fun |dynamic_clock_divider#69| ((state |dynamic_clock_divider_s|)) (_ BitVec 1) (ite (|dynamic_clock_divider#36| state) (|dynamic_clock_divider#68| state) (|dynamic_clock_divider#64| state))) ; $procmux$197_Y
; yosys-smt2-anyseq dynamic_clock_divider#70 1 $auto$setundef.cc:524:execute$281
(declare-fun |dynamic_clock_divider#70| (|dynamic_clock_divider_s|) (_ BitVec 1)) ; $auto$rtlil.cc:2318:Anyseq$282
(define-fun |dynamic_clock_divider#71| ((state |dynamic_clock_divider_s|)) (_ BitVec 1) (ite (= ((_ extract 0 0) (|dynamic_clock_divider#17| state)) #b1) (|dynamic_clock_divider#70| state) (|dynamic_clock_divider#69| state))) ; $procmux$200_Y
(define-fun |dynamic_clock_divider#72| ((state |dynamic_clock_divider_s|)) (_ BitVec 1) (ite (|dynamic_clock_divider#41| state) (|dynamic_clock_divider#71| state) (|dynamic_clock_divider#63| state))) ; $0$formal$dynamic_clock_divider.v:105$22_CHECK[0:0]$55
; yosys-smt2-anyseq dynamic_clock_divider#73 1 $auto$setundef.cc:524:execute$249
(declare-fun |dynamic_clock_divider#73| (|dynamic_clock_divider_s|) (_ BitVec 1)) ; $auto$rtlil.cc:2318:Anyseq$250
; yosys-smt2-anyseq dynamic_clock_divider#74 1 $auto$setundef.cc:524:execute$247
(declare-fun |dynamic_clock_divider#74| (|dynamic_clock_divider_s|) (_ BitVec 1)) ; $auto$rtlil.cc:2318:Anyseq$248
(define-fun |dynamic_clock_divider#75| ((state |dynamic_clock_divider_s|)) (_ BitVec 1) (ite (= ((_ extract 0 0) (|dynamic_clock_divider#17| state)) #b1) (ite (|dynamic_clock_divider#23| state) #b1 #b0) (|dynamic_clock_divider#74| state))) ; $procmux$118_Y
(define-fun |dynamic_clock_divider#76| ((state |dynamic_clock_divider_s|)) (_ BitVec 1) (ite (|dynamic_clock_divider#41| state) (|dynamic_clock_divider#75| state) (|dynamic_clock_divider#73| state))) ; $0$formal$dynamic_clock_divider.v:91$18_CHECK[0:0]$47
(define-fun |dynamic_clock_divider#77| ((state |dynamic_clock_divider_s|)) (_ BitVec 1) (ite (= ((_ extract 0 0) (|dynamic_clock_divider#17| state)) #b1) #b1 #b0)) ; $procmux$113_Y
(define-fun |dynamic_clock_divider#78| ((state |dynamic_clock_divider_s|)) (_ BitVec 1) (ite (|dynamic_clock_divider#41| state) (|dynamic_clock_divider#77| state) #b0)) ; $0$formal$dynamic_clock_divider.v:91$18_EN[0:0]$48
; yosys-smt2-anyseq dynamic_clock_divider#79 1 $auto$setundef.cc:524:execute$253
(declare-fun |dynamic_clock_divider#79| (|dynamic_clock_divider_s|) (_ BitVec 1)) ; $auto$rtlil.cc:2318:Anyseq$254
; yosys-smt2-anyseq dynamic_clock_divider#80 1 $auto$setundef.cc:524:execute$251
(declare-fun |dynamic_clock_divider#80| (|dynamic_clock_divider_s|) (_ BitVec 1)) ; $auto$rtlil.cc:2318:Anyseq$252
(define-fun |dynamic_clock_divider#81| ((state |dynamic_clock_divider_s|)) (_ BitVec 1) (ite (= ((_ extract 0 0) (|dynamic_clock_divider#17| state)) #b1) (|dynamic_clock_divider#28| state) (|dynamic_clock_divider#80| state))) ; $procmux$128_Y
(define-fun |dynamic_clock_divider#82| ((state |dynamic_clock_divider_s|)) (_ BitVec 1) (ite (|dynamic_clock_divider#41| state) (|dynamic_clock_divider#81| state) (|dynamic_clock_divider#79| state))) ; $0$formal$dynamic_clock_divider.v:92$19_CHECK[0:0]$49
(define-fun |dynamic_clock_divider#83| ((state |dynamic_clock_divider_s|)) Bool (= (|dynamic_clock_divider#0| state) (|dynamic_clock_divider#4| state))) ; $eq$dynamic_clock_divider.v:63$30_Y
(define-fun |dynamic_clock_divider#84| ((state |dynamic_clock_divider_s|)) Bool (and (or  (|dynamic_clock_divider#83| state) false) (or  (|dynamic_clock_divider#3| state) false))) ; $logic_and$dynamic_clock_divider.v:63$32_Y
(define-fun |dynamic_clock_divider#85| ((state |dynamic_clock_divider_s|)) (_ BitVec 1) (ite (|dynamic_clock_divider#84| state) #b1 #b0)) ; $procmux$205_Y
(define-fun |dynamic_clock_divider#86| ((state |dynamic_clock_divider_s|)) (_ BitVec 1) (ite (|dynamic_clock_divider#2| state) #b0 (|dynamic_clock_divider#85| state))) ; $0\o_ENABLE_OUT[0:0]
(define-fun |dynamic_clock_divider#87| ((state |dynamic_clock_divider_s|)) (_ BitVec 32) (bvadd (|dynamic_clock_divider#0| state) #b00000000000000000000000000000001)) ; $add$dynamic_clock_divider.v:46$27_Y
(define-fun |dynamic_clock_divider#88| ((state |dynamic_clock_divider_s|)) Bool (bvuge (|dynamic_clock_divider#0| state) (|dynamic_clock_divider#4| state))) ; $ge$dynamic_clock_divider.v:43$26_Y
(define-fun |dynamic_clock_divider#89| ((state |dynamic_clock_divider_s|)) (_ BitVec 32) (ite (|dynamic_clock_divider#88| state) #b00000000000000000000000000000000 (|dynamic_clock_divider#87| state))) ; $procmux$212_Y
(define-fun |dynamic_clock_divider#90| ((state |dynamic_clock_divider_s|)) (_ BitVec 32) (ite (|dynamic_clock_divider#3| state) (|dynamic_clock_divider#89| state) #b00000000000000000000000000000000)) ; $procmux$214_Y
(define-fun |dynamic_clock_divider#91| ((state |dynamic_clock_divider_s|)) (_ BitVec 32) (ite (|dynamic_clock_divider#2| state) #b00000000000000000000000000000000 (|dynamic_clock_divider#90| state))) ; $0\r_Count[31:0]
(define-fun |dynamic_clock_divider_a| ((state |dynamic_clock_divider_s|)) Bool (and
  (|dynamic_clock_divider_a 0| state)
  (|dynamic_clock_divider_a 1| state)
  (|dynamic_clock_divider_a 2| state)
  (|dynamic_clock_divider_a 3| state)
  (|dynamic_clock_divider_a 4| state)
))
(define-fun |dynamic_clock_divider_u| ((state |dynamic_clock_divider_s|)) Bool (and
  (|dynamic_clock_divider_u 0| state)
  (|dynamic_clock_divider_u 1| state)
  (|dynamic_clock_divider_u 2| state)
  (|dynamic_clock_divider_u 3| state)
  (|dynamic_clock_divider_u 4| state)
))
(define-fun |dynamic_clock_divider_i| ((state |dynamic_clock_divider_s|)) Bool (and
  (= (= ((_ extract 0 0) (|dynamic_clock_divider#9| state)) #b1) false) ; $formal$dynamic_clock_divider.v:91$18_EN
  (= (= ((_ extract 0 0) (|dynamic_clock_divider#12| state)) #b1) false) ; $formal$dynamic_clock_divider.v:104$21_EN
  (= (= ((_ extract 0 0) (|dynamic_clock_divider#14| state)) #b1) false) ; $formal$dynamic_clock_divider.v:101$20_EN
))
(define-fun |dynamic_clock_divider_h| ((state |dynamic_clock_divider_s|)) Bool true)
(define-fun |dynamic_clock_divider_t| ((state |dynamic_clock_divider_s|) (next_state |dynamic_clock_divider_s|)) Bool (and
  (= (ite (|dynamic_clock_divider#5| state) #b1 #b0) (|dynamic_clock_divider#18| next_state)) ; $procdff$220 $and$dynamic_clock_divider.v:87$60_Y
  (= (ite (|dynamic_clock_divider#2| state) #b1 #b0) (|dynamic_clock_divider#17| next_state)) ; $procdff$223 $eq$dynamic_clock_divider.v:89$65_Y
  (= (ite (|dynamic_clock_divider#3| state) #b1 #b0) (|dynamic_clock_divider#16| next_state)) ; $procdff$226 $eq$dynamic_clock_divider.v:98$72_Y
  (= (|dynamic_clock_divider#42| state) (|dynamic_clock_divider#15| next_state)) ; $procdff$237 $formal$dynamic_clock_divider.v:101$20_CHECK
  (= (|dynamic_clock_divider#47| state) (|dynamic_clock_divider#14| next_state)) ; $procdff$238 $formal$dynamic_clock_divider.v:101$20_EN
  (= (|dynamic_clock_divider#57| state) (|dynamic_clock_divider#13| next_state)) ; $procdff$239 $formal$dynamic_clock_divider.v:104$21_CHECK
  (= (|dynamic_clock_divider#62| state) (|dynamic_clock_divider#12| next_state)) ; $procdff$240 $formal$dynamic_clock_divider.v:104$21_EN
  (= (|dynamic_clock_divider#72| state) (|dynamic_clock_divider#11| next_state)) ; $procdff$241 $formal$dynamic_clock_divider.v:105$22_CHECK
  (= (|dynamic_clock_divider#76| state) (|dynamic_clock_divider#10| next_state)) ; $procdff$233 $formal$dynamic_clock_divider.v:91$18_CHECK
  (= (|dynamic_clock_divider#78| state) (|dynamic_clock_divider#9| next_state)) ; $procdff$234 $formal$dynamic_clock_divider.v:91$18_EN
  (= (|dynamic_clock_divider#82| state) (|dynamic_clock_divider#8| next_state)) ; $procdff$235 $formal$dynamic_clock_divider.v:92$19_CHECK
  (= (|dynamic_clock_divider#0| state) (|dynamic_clock_divider#7| next_state)) ; $procdff$228 $past$dynamic_clock_divider.v:100$9$0
  (= (|dynamic_clock_divider#4| state) (|dynamic_clock_divider#6| next_state)) ; $procdff$221 $past$dynamic_clock_divider.v:86$2$0
  (= (|dynamic_clock_divider#86| state) (|dynamic_clock_divider#1| next_state)) ; $procdff$243 \o_ENABLE_OUT
  (= (|dynamic_clock_divider#91| state) (|dynamic_clock_divider#0| next_state)) ; $procdff$244 \r_Count
)) ; end of module dynamic_clock_divider
; yosys-smt2-topmod dynamic_clock_divider
; end of yosys output
